JOBS = 1..3;
MACHINES = 1..4;
SPEED = 3;
time = array3d(JOBS,MACHINES,1..SPEED,[71,17,12,145,35,26,120,29,21,96,23,17,151,37,27,100,24,18,193,47,34,177,43,32,113,27,20,53,13,9,161,39,29,131,32,23]);
energy = array3d(JOBS,MACHINES,1..SPEED,[49,84,88,23,70,77,30,74,81,38,79,84,22,69,76,36,78,83,14,62,71,17,65,72,32,76,81,58,87,91,19,67,74,26,72,79]);
precedence = array2d(JOBS,MACHINES,[2,1,3,0,3,1,0,2,1,2,3,0]);
ME = 1;
TE = 123;
st_old = array2d(JOBS,MACHINES,[56,17,127,0,329,52,0,152,151,264,317,20]);
SpeedScaling = array2d(JOBS,MACHINES,[1,2,1,3,3,1,2,1,1,1,2,1]);
